projet_m2_wvcp/projet_m2_wvcp/reduced_wvcp_dzn/GEOM60b.clq.dzn
cliques=[{0,1,3,5,6,8,22,25},{1,0,3,5,6,8,22,25},{2,16,23,30,39,40,43,45,48},{3,5,6,8,11,17,25,46},{1,0,4,19,20,22,24,38},{3,5,6,8,11,17,25,46},{3,6,5,8,11,17,25,46},{7,15,21,26,27,34,37},{3,5,6,8,11,17,25,46},{0,1,3,9,20,22,24},{0,10,9,14,20,47},{3,5,6,8,11,17,25,46},{5,6,8,12,11,25,32,46},{3,8,11,13,17,25},{0,10,9,14,20,47},{7,15,21,26,27,37,34},{2,16,23,30,39,40,43,45,48},{3,5,6,8,11,17,25,46},{18,23,28,30,29},{1,0,4,19,20,22,24,38},{0,1,3,9,20,22,24},{7,15,21,26,27,34,37},{0,1,3,5,6,8,22,25},{2,16,23,30,39,40,43,45,48},{1,0,3,9,20,22,24},{3,5,6,8,11,17,25,46},{7,15,21,26,27,34,37},{7,15,21,26,27,34,37},{7,19,21,28,27,29,38,42},{7,19,21,28,27,29,38,42},{2,16,23,30,39,40,43,45,48},{7,15,21,26,27,31,37},{3,5,6,8,11,25,32,46},{2,10,14,33,36,35},{7,15,21,26,27,34,37},{2,10,14,33,35,36},{2,10,14,33,36,35},{7,15,21,26,27,37,34},{1,0,4,19,20,22,24,38},{2,16,23,30,39,40,43,45,48},{2,16,23,30,39,40,43,45,48},{7,15,21,26,31,41,44},{7,19,21,26,27,28,38,42},{2,16,23,30,39,40,43,45,48},{7,15,21,26,31,37,44},{2,16,23,30,39,40,43,45,48},{3,5,6,8,11,17,25,46},{0,9,10,14,20,47},{2,16,23,30,39,40,43,45,48}];
nr_cliques=49;
