projet_m2_wvcp/projet_m2_wvcp/reduced_wvcp_dzn/GEOM60b.dzn
name="GEOM60b";
nr_vertices=49;
nr_edges=302;
neighborhoods=[{1,3,4,5,6,8,9,10,13,14,19,20,22,24,25,38,47},{0,2,3,4,5,6,8,9,19,20,21,22,23,24,25,26,38},{1,4,10,14,16,20,23,24,30,33,35,36,39,40,43,45,48},{0,1,5,6,8,9,11,13,17,19,20,22,24,25,32,46},{0,1,2,19,20,21,22,23,24,27,28,29,30,38,39,40},{0,1,3,6,8,11,12,17,19,22,25,32,41,46},{0,1,3,5,8,11,12,17,19,22,25,32,41,46},{15,19,21,26,27,28,29,31,34,37,38,41,42,44},{0,1,3,5,6,11,12,13,17,22,25,32,46},{0,1,3,10,13,14,20,22,24,33,36,47},{0,2,9,14,20,22,24,33,35,36,39,47},{3,5,6,8,12,13,17,25,32,46},{5,6,8,11,25,31,32,41,44,46},{0,3,8,9,11,17,22,25,47},{0,2,9,10,20,33,35,36,47},{7,21,26,27,31,34,37,41,44},{2,23,30,35,39,40,43,45,48},{3,5,6,8,11,13,25,46},{23,28,29,30,39,40,42,48},{0,1,3,4,5,6,7,20,21,22,24,26,27,28,29,31,38,41,42,44},{0,1,2,3,4,9,10,14,19,22,23,24,25,38,39,40,47},{1,4,7,15,19,24,26,27,28,29,31,34,37,38,41,42,44},{0,1,3,4,5,6,8,9,10,13,19,20,24,25,38,47},{1,2,4,16,18,20,24,28,29,30,38,39,40,43,45,48},{0,1,2,3,4,9,10,19,20,21,22,23,38,39,40},{0,1,3,5,6,8,11,12,13,17,20,22,32,46},{1,7,15,19,21,27,28,31,34,37,38,41,42,44},{4,7,15,19,21,26,28,29,31,34,37,38,42},{4,7,18,19,21,23,26,27,29,30,34,38,42},{4,7,18,19,21,23,27,28,30,34,38,42},{2,4,16,18,23,28,29,39,40,43,45,48},{7,12,15,19,21,26,27,37,38,41,44},{3,5,6,8,11,12,25,41,44,46},{2,9,10,14,35,36,39,43,45,47},{7,15,21,26,27,28,29,37,42},{2,10,14,16,33,36,39,43,45},{2,9,10,14,33,35,39,43,47},{7,15,21,26,27,31,34,42,44},{0,1,4,7,19,20,21,22,23,24,26,27,28,29,31,42},{2,4,10,16,18,20,23,24,30,33,35,36,40,43,45,48},{2,4,16,18,20,23,24,30,39,43,45,48},{5,6,7,12,15,19,21,26,31,32,44},{7,18,19,21,26,27,28,29,34,37,38},{2,16,23,30,33,35,36,39,40,45,48},{7,12,15,19,21,26,31,32,37,41},{2,16,23,30,33,35,39,40,43,48},{3,5,6,8,11,12,17,25,32},{0,9,10,13,14,20,22,33,36},{2,16,18,23,30,39,40,43,45}];
weights=[3,3,3,3,3,3,3,3,3,3,3,3,3,3,3,3,3,3,3,2,2,2,2,2,2,2,2,2,2,2,2,2,2,2,2,2,2,2,1,1,1,1,1,1,1,1,1,1,1];
